p cnf 42 111
a 18 23 0
e 1 2 3 4 5 6 7 8 9 10 11 12 13 14 15 16 17 19 20 21 22 24 25 26 27 28 29 30 31 32 33 34 35 36 37 38 39 40 41 42 0
3 -1 0
3 -2 0
1 2 -3 0
6 4 0
6 5 0
-4 -5 -6 0
-7 6 0
-7 -2 0
-6 2 7 0
-8 -3 0
-8 7 0
3 -7 8 0
9 -10 -11 0
-9 10 -11 0
9 10 11 0
-9 -10 11 0
12 -11 0
12 5 0
11 -5 -12 0
13 -8 0
13 12 0
8 -12 -13 0
15 -10 0
15 14 0
10 -14 -15 0
-17 9 0
-17 -16 0
-9 16 17 0
-18 -15 0
-18 -17 0
15 17 18 0
-13 -18 -19 0
13 18 -19 0
-13 18 19 0
13 -18 19 0
20 -17 0
20 -9 0
17 9 -20 0
-21 -16 0
-21 -20 0
16 20 21 0
-22 11 0
-22 10 0
-11 -10 22 0
-23 15 0
-23 16 0
-15 -16 23 0
23 -24 0
-23 -24 0
24 25 -26 0
-24 -25 -26 0
24 -25 26 0
-24 25 26 0
-27 -9 0
-27 -14 0
9 14 27 0
28 -11 0
28 -27 0
11 27 -28 0
-29 26 0
-29 -28 0
-26 28 29 0
30 -22 0
30 29 0
22 -29 -30 0
-31 -24 0
-31 6 0
24 -6 31 0
32 4 0
32 -31 0
-4 31 -32 0
33 25 0
33 -25 0
-34 32 0
-34 -33 0
-32 33 34 0
35 -30 0
35 34 0
30 -34 -35 0
-21 35 -36 0
21 -35 -36 0
-21 -35 36 0
21 35 36 0
37 -19 0
37 -36 0
19 36 -37 0
16 -4 -38 0
-16 4 -38 0
16 4 38 0
-16 -4 38 0
-40 39 0
-40 25 0
-39 -25 40 0
-38 40 -41 0
38 -40 -41 0
-38 -40 41 0
38 40 41 0
42 37 0
42 41 0
-37 -41 -42 0
-9 21 -4 -20 23 14 0
35 13 33 -19 -22 0
-30 11 20 -39 0
40 15 33 14 22 0
25 -42 23 -31 0
29 5 -1 10 -12 33 0
-39 -9 -13 14 10 -11 0
-1 27 33 14 -28 0
23 20 15 4 -18 0
6 4 -7 -31 0
42 0
